\ This file has been generated by DOcplex
\ ENCODING=ISO-8859-1
\Problem name: random_problem.lp

Minimize
 obj: 616 x0 + 308 x1 + 154 x2 + 740 x3 + 370 x4 + 185 x5 - 492 x6 - 246 x7
      - 123 x8 + [ 9024 x0^2 + 9024 x0*x1 + 4512 x0*x2 + 3456 x0*x3 + 1728 x0*x4
      + 864 x0*x5 + 5120 x0*x6 + 2560 x0*x7 + 1280 x0*x8 + 2256 x1^2
      + 2256 x1*x2 + 1728 x1*x3 + 864 x1*x4 + 432 x1*x5 + 2560 x1*x6
      + 1280 x1*x7 + 640 x1*x8 + 564 x2^2 + 864 x2*x3 + 432 x2*x4 + 216 x2*x5
      + 1280 x2*x6 + 640 x2*x7 + 320 x2*x8 + 7680 x3^2 + 7680 x3*x4 + 3840 x3*x5
      + 2048 x3*x6 + 1024 x3*x7 + 512 x3*x8 + 1920 x4^2 + 1920 x4*x5
      + 1024 x4*x6 + 512 x4*x7 + 256 x4*x8 + 480 x5^2 + 512 x5*x6 + 256 x5*x7
      + 128 x5*x8 + 5504 x6^2 + 5504 x6*x7 + 2752 x6*x8 + 1376 x7^2 + 1376 x7*x8
      + 344 x8^2 ]/2
Subject To
 c0: 4 x0 + 2 x1 + x2 + 4 x3 + 2 x4 + x5 + 4 x6 + 2 x7 + x8 = 7

Bounds
 0 <= x0 <= 1
 0 <= x1 <= 1
 0 <= x2 <= 1
 0 <= x3 <= 1
 0 <= x4 <= 1
 0 <= x5 <= 1
 0 <= x6 <= 1
 0 <= x7 <= 1
 0 <= x8 <= 1

Binaries
 x0 x1 x2 x3 x4 x5 x6 x7 x8
End
